
Log started (V11.0.0) Fri Apr 18 14:44:00 2008

Tried aggregator 1 time.
Reduced MIP has 210 rows, 2001 columns, and 4010 nonzeros.
Presolve time =    0.01 sec.
Clique table members: 200.
MIP emphasis: balance optimality and feasibility.
MIP search method: dynamic search.
Parallel mode: none, using 1 thread.
Root relaxation solution time =    0.05 sec.

        Nodes                                         Cuts/
   Node  Left     Objective  IInf  Best Integer     Best Node    ItCnt     Gap

*     0+    0                        29525.0000     2176.6438      276   92.63%
*     0+    0                         2220.0000     2176.6438      276    1.95%
      0     0     2177.0000    17     2220.0000      Fract: 7      288    1.94%
      0     0     2177.0000    20     2220.0000     Covers: 1      337    1.94%
      0     0     2177.0000    24     2220.0000     Covers: 1      349    1.94%
*     0+    0                         2219.0000     2177.0000      349    1.89%
*     0+    0                         2215.0000     2177.0000      349    1.72%
      0     2     2177.0000    24     2215.0000     2177.0000      349    1.72%
    100    85     2180.0000    20     2215.0000     2177.0000     3085    1.72%
    200   147     2187.1547    18     2215.0000     2177.0000     8439    1.72%
    300   204     2186.0000    19     2215.0000     2177.0000    14853    1.72%
    400   260     2198.1915    17     2215.0000     2177.0000    20624    1.72%
*   481+  293                         2204.0000     2177.0000    22177    1.23%
*   482+  260                         2200.0000     2177.0000    22294    1.05%
*   483+  173                         2187.0000     2178.0302    23711    0.41%
*   483+  114                         2186.0000     2178.0302    23711    0.36%
    500   125     2179.0000    26     2186.0000     2179.0000    23923    0.32%
    600   138     2182.5033    21     2186.0000     2179.0000    25389    0.32%
*   683+  153                         2185.0000     2179.0000    26861    0.27%
    700   170     2181.0000    26     2185.0000     2179.0000    27019    0.27%
    800   232     2184.0000    43     2185.0000     2179.0000    29206    0.27%
    900   316     2183.0000    40     2185.0000     2179.0000    32398    0.27%
   1000   388     2184.0000    26     2185.0000     2179.0000    35174    0.27%
Elapsed time =  10.47 sec. (tree size =  0.33 MB, solutions = 9)
   1100   465     2181.0000    63     2185.0000     2179.0000    38323    0.27%
   1200   552     2183.0000    33     2185.0000     2179.0000    41605    0.27%
   1300   635     2184.0000    35     2185.0000     2179.0000    44561    0.27%
   1400   723     2183.0000    40     2185.0000     2179.0000    48345    0.27%
*  1483+  592                         2184.0000     2179.0000    50521    0.23%
   1500   609     2183.0000    25     2184.0000     2179.0000    50782    0.23%
   1600   683     2183.0000    32     2184.0000     2179.0000    55704    0.23%
   1700   763     2183.0000    28     2184.0000     2179.0000    58084    0.23%
   1800   832        cutoff           2184.0000     2179.0000    63462    0.23%
   1900   907     2180.0000    62     2184.0000     2179.0000    69185    0.23%
   2000   997     2181.0000    45     2184.0000     2179.0000    72413    0.23%
Elapsed time =  20.48 sec. (tree size =  0.88 MB, solutions = 10)
   2100  1086     2183.0000    31     2184.0000     2179.0000    75266    0.23%
   2200  1165     2182.0000    36     2184.0000     2179.0000    79603    0.23%
   2300  1239     2183.0000    55     2184.0000     2179.0000    85428    0.23%
   2400  1329     2183.0000    33     2184.0000     2179.0000    89832    0.23%
   2500  1408     2183.0000    38     2184.0000     2179.0000    93966    0.23%
   2600  1491     2182.0000    48     2184.0000     2179.0000    99452    0.23%
   2700  1580    infeasible           2184.0000     2179.0000   103994    0.23%
   2800  1663     2182.0000    34     2184.0000     2179.0000   109146    0.23%
   2900  1753     2182.0000    29     2184.0000     2179.0000   112654    0.23%
   3000  1840     2182.0000    50     2184.0000     2179.0000   115503    0.23%
Elapsed time =  30.45 sec. (tree size =  1.66 MB, solutions = 10)
   3100  1926     2182.0000    41     2184.0000     2179.0000   119312    0.23%
   3200  2008     2183.0000    40     2184.0000     2179.0000   123583    0.23%
   3300  2082     2182.0000    42     2184.0000     2179.0000   129277    0.23%
   3400  2164     2183.0000    32     2184.0000     2179.0000   134247    0.23%
   3500  2238    infeasible           2184.0000     2179.0000   139757    0.23%
   3600  2318     2182.0000    41     2184.0000     2179.0000   146036    0.23%
   3700  2404     2183.0000    43     2184.0000     2180.0000   150072    0.18%
   3800  2428     2181.0000    52     2184.0000     2180.0000   164374    0.18%
   3900  2503     2183.0000    41     2184.0000     2180.0000   170003    0.18%
   4000  2590     2183.0000    50     2184.0000     2180.0000   174919    0.18%
Elapsed time =  45.72 sec. (tree size =  2.38 MB, solutions = 10)
   4100  2670     2181.0000    89     2184.0000     2180.0000   179637    0.18%
   4200  2757     2183.0000    33     2184.0000     2180.0000   183925    0.18%
   4300  2842     2182.0000    44     2184.0000     2180.0000   187210    0.18%
   4400  2925     2181.0000    57     2184.0000     2180.0000   191889    0.18%
   4500  3007     2183.0000    32     2184.0000     2180.0000   198066    0.18%
   4600  3091     2182.0149    57     2184.0000     2180.0000   202658    0.18%
   4700  3176     2183.0000    21     2184.0000     2180.0000   207445    0.18%
   4800  3259     2183.0000    49     2184.0000     2180.0000   213878    0.18%
   4900  3333     2181.0000    77     2184.0000     2180.0000   219731    0.18%
   5000  3424     2183.0000    36     2184.0000     2180.0000   223411    0.18%
Elapsed time =  61.45 sec. (tree size =  3.16 MB, solutions = 10)
   5100  3513     2183.0000    39     2184.0000     2180.0000   227042    0.18%
   5200  3603     2183.0000    27     2184.0000     2180.0000   231110    0.18%
   5300  3695     2183.0000    42     2184.0000     2180.0000   234199    0.18%
   5400  3774     2182.0000    36     2184.0000     2180.0000   240168    0.18%
   5500  3863     2183.0000    32     2184.0000     2180.0000   244534    0.18%
   5600  3948     2182.0000    42     2184.0000     2180.0000   249763    0.18%
   5700  4032     2182.0000    55     2184.0000     2180.0000   253745    0.18%
*  5783+ 2183                         2183.0000     2180.0000   257786    0.14%
   5800  2201     2182.0000    38     2183.0000     2180.0000   258580    0.14%
   5900  2286     2182.0000    38     2183.0000     2180.0000   264139    0.14%
   6000  2368     2181.0000    42     2183.0000     2180.0000   270169    0.14%
Elapsed time =  76.78 sec. (tree size =  2.20 MB, solutions = 11)
   6100  2455     2182.0000    32     2183.0000     2180.0000   274853    0.14%
   6200  2541     2182.0000    34     2183.0000     2180.0000   280192    0.14%
   6300  2620     2181.0000    33     2183.0000     2180.0000   286423    0.14%
   6400  2713     2182.0000    37     2183.0000     2180.0000   288862    0.14%
   6500  2790    infeasible           2183.0000     2180.0000   296235    0.14%
   6600  2871     2181.0000    34     2183.0000     2180.0000   302155    0.14%
   6700  2960     2181.0000    37     2183.0000     2180.0000   304404    0.14%
   6800  3042     2182.0000    46     2183.0000     2180.0000   310559    0.14%
   6900  3119     2182.0000    31     2183.0000     2180.0000   317972    0.14%
   7000  3205     2182.0000    34     2183.0000     2180.0000   322346    0.14%
Elapsed time =  94.78 sec. (tree size =  2.98 MB, solutions = 11)
   7100  3297     2181.0000    46     2183.0000     2180.0000   325132    0.14%
   7200  3380     2182.0000    34     2183.0000     2180.0000   330675    0.14%
   7300  3460     2180.0000    70     2183.0000     2180.0000   336354    0.14%
   7400  3540    infeasible           2183.0000     2180.0000   341825    0.14%
   7500  3624     2182.0000    34     2183.0000     2180.0000   348231    0.14%
   7600  3706     2181.0000    38     2183.0000     2180.0000   354767    0.14%
   7700  3784     2182.0000    44     2183.0000     2180.0000   361847    0.14%
   7800  3866     2181.0000    40     2183.0000     2180.0000   366620    0.14%
   7900  3954     2181.0000    62     2183.0000     2180.0000   372854    0.14%
   8000  4042     2182.0000    22     2183.0000     2180.0000   376271    0.14%
Elapsed time = 113.80 sec. (tree size =  3.77 MB, solutions = 11)
   8100  4126     2180.0000    69     2183.0000     2180.0000   380034    0.14%
   8200  4216     2182.0000    44     2183.0000     2180.0000   384454    0.14%
   8300  4293    infeasible           2183.0000     2180.0000   391716    0.14%
   8400  4379     2182.0000    27     2183.0000     2180.0000   396663    0.14%
   8500  4470     2182.0000    34     2183.0000     2180.0000   400892    0.14%
   8600  4546     2181.1199    53     2183.0000     2180.0000   409478    0.14%
   8700  4636     2182.0000    26     2183.0000     2180.0000   412147    0.14%
   8800  4711     2182.0000    34     2183.0000     2180.0000   419227    0.14%
   8900  4801     2182.0000    39     2183.0000     2180.0000   422569    0.14%
   9000  4877     2181.0000    60     2183.0000     2180.0000   429710    0.14%
Elapsed time = 132.80 sec. (tree size =  4.62 MB, solutions = 11)
   9100  4965     2180.0000    66     2183.0000     2180.0000   433142    0.14%
*  9183+  135                         2181.0000     2180.0000   436621    0.05%
   9200   133    infeasible           2181.0000     2180.0000   440247    0.05%
   9300   117    infeasible           2181.0000     2180.0000   465411    0.05%
   9400   135     2180.0000    73     2181.0000     2180.0000   492015    0.05%
   9500   117    infeasible           2181.0000     2180.0000   525754    0.05%
   9600   119     2180.0000    63     2181.0000     2180.0000   556756    0.05%
   9700    95     2180.0000    59     2181.0000     2180.0000   594156    0.05%
   9800    73    infeasible           2181.0000     2180.0000   630471    0.05%
   9900    69        cutoff           2181.0000     2180.0000   665742    0.05%
  10000    73    infeasible           2181.0000     2180.0000   698659    0.05%
Elapsed time = 226.23 sec. (tree size =  0.19 MB, solutions = 12)
  10100    51    infeasible           2181.0000     2180.0000   732776    0.05%
  10200    55     2180.0000    70     2181.0000     2180.0000   765228    0.05%
  10300    31     2180.0000    96     2181.0000     2180.0000   807234    0.05%
  10400    35    infeasible           2181.0000     2180.0000   838464    0.05%
  10500    23    infeasible           2181.0000     2180.0000   878884    0.05%
  10600    11     2180.0000    82     2181.0000     2180.0000   918960    0.05%
  10700     9    infeasible           2181.0000     2180.0000   957883    0.05%

Cover cuts applied:  783
Mixed integer rounding cuts applied:  15
Gomory fractional cuts applied:  5

Solution pool: 12 solutions saved.

MIP - Integer optimal solution:  Objective = 2.1810000000e+003
Solution time =  325.25 sec.  Iterations = 965612  Nodes = 10714


Incumbent solution
Variable Name           Solution Value
Cmax                       2181.000000
X_1_7                         1.000000
X_2_2                         1.000000
X_3_3                         1.000000
X_4_6                         1.000000
X_5_1                         1.000000
X_6_1                         1.000000
X_7_10                        1.000000
X_8_8                         1.000000
X_9_4                         1.000000
X_10_5                        1.000000
X_11_10                       1.000000
X_12_8                        1.000000
X_13_1                        1.000000
X_14_6                        1.000000
X_15_5                        1.000000
X_16_3                        1.000000
X_17_6                        1.000000
X_18_5                        1.000000
X_19_9                        1.000000
X_20_8                        1.000000
X_21_7                        1.000000
X_22_6                        1.000000
X_23_5                        1.000000
X_24_10                       1.000000
X_25_9                        1.000000
X_26_9                        1.000000
X_27_3                        1.000000
X_28_5                        1.000000
X_29_9                        1.000000
X_30_1                        1.000000
X_31_3                        1.000000
X_32_9                        1.000000
X_33_2                        1.000000
X_34_5                        1.000000
X_35_1                        1.000000
X_36_1                        1.000000
X_37_7                        1.000000
X_38_4                        1.000000
X_39_7                        1.000000
X_40_9                        1.000000
X_41_4                        1.000000
X_42_8                        1.000000
X_43_1                        1.000000
X_44_2                        1.000000
X_45_5                        1.000000
X_46_5                        1.000000
X_47_1                        1.000000
X_48_2                        1.000000
X_49_3                        1.000000
X_50_2                        1.000000
X_51_8                        1.000000
X_52_7                        1.000000
X_53_8                        1.000000
X_54_1                        1.000000
X_55_4                        1.000000
X_56_3                        1.000000
X_57_8                        1.000000
X_58_4                        1.000000
X_59_10                       1.000000
X_60_7                        1.000000
X_61_5                        1.000000
X_62_2                        1.000000
X_63_5                        1.000000
X_64_3                        1.000000
X_65_4                        1.000000
X_66_9                        1.000000
X_67_1                        1.000000
X_68_4                        1.000000
X_69_10                       1.000000
X_70_8                        1.000000
X_71_2                        1.000000
X_72_4                        1.000000
X_73_7                        1.000000
X_74_6                        1.000000
X_75_8                        1.000000
X_76_3                        1.000000
X_77_7                        1.000000
X_78_2                        1.000000
X_79_4                        1.000000
X_80_9                        1.000000
X_81_7                        1.000000
X_82_6                        1.000000
X_83_5                        1.000000
X_84_8                        1.000000
X_85_1                        1.000000
X_86_10                       1.000000
X_87_7                        1.000000
X_88_2                        1.000000
X_89_6                        1.000000
X_90_5                        1.000000
X_91_3                        1.000000
X_92_7                        1.000000
X_93_8                        1.000000
X_94_3                        1.000000
X_95_4                        1.000000
X_96_9                        1.000000
X_97_6                        1.000000
X_98_4                        1.000000
X_99_10                       1.000000
X_100_6                       1.000000
X_101_3                       1.000000
X_102_10                      1.000000
X_103_10                      1.000000
X_104_10                      1.000000
X_105_9                       1.000000
X_106_10                      1.000000
X_107_7                       1.000000
X_108_9                       1.000000
X_109_9                       1.000000
X_110_8                       1.000000
X_111_2                       1.000000
X_112_7                       1.000000
X_113_5                       1.000000
X_114_4                       1.000000
X_115_7                       1.000000
X_116_3                       1.000000
X_117_4                       1.000000
X_118_8                       1.000000
X_119_10                      1.000000
X_120_10                      1.000000
X_121_8                       1.000000
X_122_6                       1.000000
X_123_10                      1.000000
X_124_9                       1.000000
X_125_4                       1.000000
X_126_2                       1.000000
X_127_4                       1.000000
X_128_6                       1.000000
X_129_2                       1.000000
X_130_5                       1.000000
X_131_10                      1.000000
X_132_4                       1.000000
X_133_9                       1.000000
X_134_9                       1.000000
X_135_6                       1.000000
X_136_8                       1.000000
X_137_9                       1.000000
X_138_2                       1.000000
X_139_10                      1.000000
X_140_2                       1.000000
X_141_3                       1.000000
X_142_5                       1.000000
X_143_3                       1.000000
X_144_8                       1.000000
X_145_5                       1.000000
X_146_5                       1.000000
X_147_9                       1.000000
X_148_6                       1.000000
X_149_4                       1.000000
X_150_3                       1.000000
X_151_5                       1.000000
X_152_3                       1.000000
X_153_2                       1.000000
X_154_8                       1.000000
X_155_4                       1.000000
X_156_8                       1.000000
X_157_9                       1.000000
X_158_7                       1.000000
X_159_6                       1.000000
X_160_6                       1.000000
X_161_7                       1.000000
X_162_7                       1.000000
X_163_2                       1.000000
X_164_10                      1.000000
X_165_2                       1.000000
X_166_4                       1.000000
X_167_3                       1.000000
X_168_9                       1.000000
X_169_4                       1.000000
X_170_1                       1.000000
X_171_5                       1.000000
X_172_10                      1.000000
X_173_10                      1.000000
X_174_1                       1.000000
X_175_6                       1.000000
X_176_1                       1.000000
X_177_7                       1.000000
X_178_1                       1.000000
X_179_1                       1.000000
X_180_1                       1.000000
X_181_3                       1.000000
X_182_9                       1.000000
X_183_8                       1.000000
X_184_7                       1.000000
X_185_3                       1.000000
X_186_2                       1.000000
X_187_3                       1.000000
X_188_6                       1.000000
X_189_1                       1.000000
X_190_10                      1.000000
X_191_6                       1.000000
X_192_5                       1.000000
X_193_8                       1.000000
X_194_2                       1.000000
X_195_1                       1.000000
X_196_1                       1.000000
X_197_7                       1.000000
X_198_2                       1.000000
X_199_6                       1.000000
X_200_6                       1.000000
All other variables in the range 1-2001 are 0.
